729183729191649191834919552855286186428552864286185528912891379161891379219551961738519519437373468164619546192738276644691546644655466446375466455466454637554664554665454664554637554699999999425151515424242427313782285582195821958219468216858228558237558228558228558219558219492197319582198219734591493715929419372837283729428645564294373491673582919194619191927381919182827378348375619461942918264834829173644656473644664466473564465564195564465644656473564465564